webassembly/ejemplos_dzn/folder15_json_44.dzn
TERM = { '.', 's(2)', 's(5)', 's(4)', 'in_1', 'local_0', 'local_1', 'in_6', 'in_2', 'in_4', 'in_3', 'in_8', 's(1)', 's(0)', 'in_7', 'in_5', 's(3)', 'in_0'};
null = '.';
s = 15;
n = 14;
ndeps = 7;
max_registers_sz = 5;
NR = 2;
registers = [|'local_0', 's(1)', |'local_1', 's(2)'|];
dependencies = [|'i32.store16_0', 'i32.store_1', |'i32.store_1', 'i32.load_2', |'i32.load_2', 'i32.store8_3', |'i32.store8_3', 'i32.load8_s_5', |'i32.store8_3', 'i32.load8_s_8', |'i32.store8_3', 'i32.load8_u_10', |'i32.store8_3', 'i32.load_12'|];
GET_ENUM = { GET1, GET2, GET3, GET4, GET5, GET6, GET7};
SET_ENUM = { SET1, SET2, SET3, SET4, SET5, SET6, SET7};
TEE_ENUM = { TEE1, TEE2, TEE3, TEE4, TEE5, TEE6, TEE7};
N = 9;
OP = { 'i32.add_0', 'i32.store16_0', 'i32.store_1', 'i32.load_2', 'i32.store8_3', 'i32.load8_s_5', 'i32.load8_s_8', 'i32.load8_u_10', 'i32.load_12' };
in_ops = [2, 2, 2, 1, 2, 1, 1, 1, 1 ];
out_ops = [1, 0, 0, 1, 0, 1, 1, 1, 1 ];
in1 = ['s(2)', 'in_0', 'in_2', 'in_4', 's(0)', 'in_7', 's(1)', 'in_8', 's(2)' ];
in2 = ['s(4)', 'in_1', 'in_3', '.', 'in_5', '.', '.', '.', '.' ];
in3 = ['.', '.', '.', '.', '.', '.', '.', '.', '.' ];
out1 = ['s(5)', '.', '.', 's(0)', '.', 's(1)', 's(2)', 's(3)', 's(4)' ];
out2 = ['.', '.', '.', '.', '.', '.', '.', '.', '.' ];
out3 = ['.', '.', '.', '.', '.', '.', '.', '.', '.' ];
comm = [true, false, false, false, false, false, false, false, false ];
gas = [1, 1, 1, 1, 1, 1, 1, 1, 1 ];
sz = [1, 1, 1, 1, 1, 1, 1, 1, 1 ];
stor = [false, true, true, false, true, false, false, false, false ];
lb = [ 1, 1, 1, 1, 1, 1, 1, 1, 1 ];
ub = [ 15, 15, 15, 15, 15, 15, 15, 15, 15 ];
startstack = [ 'in_0', 'in_1', 'in_2', 'in_3', 'in_4', 'in_5', 'in_6', 'in_7', 'in_8', null, null, null, null, null ];
endstack = [ 's(5)', 's(3)', null, null, null, null, null, null, null, null, null, null, null, null ];
